(set-info :Origin "This instance was generated by: BanditFuzz-- an RL fuzzer for SMT solvers" )
(set-info :Author "Joe Scott, Fed Mora, Vijay Ganesh" )
(set-info :Contact "Joe Scott, joseph.scott@uwaterloo.ca")
(set-logic QF_BV)
(declare-const bool_0 Bool)
(declare-const bool_1 Bool)
(declare-const bool_2 Bool)
(declare-const bool_3 Bool)
(declare-const bool_4 Bool)
(declare-const bv_0 (_ BitVec 32))
(declare-const bv_1 (_ BitVec 32))
(declare-const bv_2 (_ BitVec 32))
(declare-const bv_3 (_ BitVec 32))
(declare-const bv_4 (_ BitVec 32))
(assert (xor (bvsle (bvsub #x0a7b90fe  #xa1877e61 ) (bvlshr bv_2 #x0ec5c7bc )) (xor (not bool_3) (bvuge bv_2 #x4663e69f ))))
(assert (=> (=> (and bool_3 true) (or false true)) (bvugt (bvnor #x4e624418  bv_2) (bvmul bv_1 bv_1))))
(assert (bvsgt (bvshl (bvsdiv #xc08f77de  bv_0) (bvnand #xacfcb2f6  bv_3)) (bvadd (bvnand #x102a8cb5  bv_0) (bvsub #x1da24a2a  bv_0))))
(assert (bvult (bvashr (bvsdiv #xac5c315d  #xf40f54f3 ) (bvnor #x4db80873  bv_0)) (bvadd (bvand bv_4 bv_0) (bvurem bv_1 bv_4))))
(assert (bvsge (bvnor (bvnor bv_4 #xb25fcb5e ) (bvmul bv_3 #x143c77db )) (bvsrem (bvsmod #x6e256f26  #x8d282e86 ) (bvor bv_3 #x7ef4d6e6 ))))
(check-sat)
(exit)
